Welcome to sphere packing routines, relation testing division.
Welcome to Section A_9.0.
Enter depth bound:  Enter slop:  Depth bound = 32
slop = 0.001
Starting time:  	Sat May  2 17:39:12 1998

Starting case 1:
2.509999999999999786	2.696000000000000174
2.000000000000000000	2.510000000000000230
2.000000000000000000	2.510000000000000230
cellcount    =        769473613		maxdepth = 13
partialtries =         96979435
impossible   =                0	domaincut    =                0
acutecut     =                0		verifycount  =        670868259
partialcount =          2388083		diff         =          -762164
Verification succeeded.

Done.
Ending time:    	Sun May  3 00:06:05 1998

Elapsed time: 23213 seconds
diff = 1706.63		33148.4 cells per second


